SDVRP instances/custom_instances/p03_20_splitx10_0.vrp
NAME:p03_20_splitx10_
BEST_KNOWN: 0
COMMENT: 0
DIMENSION: 475
CAPACITY: 2000
EDGE_WEIGHT_FORMAT: FUNCTION
EDGE_WEIGHT_TYPE: EXACT_2D
NODE_COORD_SECTION
1 0.00000 0.00000
2 25 -41
3 25 -41
4 25 -41
5 25 -41
6 25 -41
7 -29 9
8 -29 9
9 -29 9
10 -29 9
11 27 10
12 27 10
13 27 10
14 27 10
15 50 -32
16 50 -32
17 50 -32
18 50 -32
19 50 -32
20 22 -1
21 22 -1
22 22 -1
23 22 -1
24 22 -1
25 22 -1
26 14 8
27 14 8
28 36 32
29 36 32
30 36 32
31 36 32
32 -36 13
33 -36 13
34 -36 13
35 -36 13
36 -36 13
37 -36 13
38 -43 23
39 -43 23
40 -43 23
41 -43 23
42 -43 23
43 45 2
44 45 2
45 -38 -21
46 -38 -21
47 -38 -21
48 -38 -21
49 -38 -21
50 -38 -21
51 -38 -21
52 6 46
53 6 46
54 6 46
55 6 46
56 6 46
57 6 46
58 -24 -10
59 -24 -10
60 -24 -10
61 -24 -10
62 -3 -23
63 -3 -23
64 -3 -23
65 -3 -23
66 -3 -23
67 -3 -23
68 -5 10
69 -5 10
70 -5 10
71 -5 10
72 -27 27
73 -27 27
74 -27 27
75 40 -39
76 40 -39
77 40 -39
78 40 -39
79 -24 14
80 -24 14
81 -24 14
82 -24 14
83 -1 28
84 -1 28
85 -1 28
86 -1 28
87 -4 15
88 -4 15
89 -4 15
90 -4 15
91 -4 15
92 0 -9
93 0 -9
94 0 -9
95 2 -10
96 2 -10
97 2 -10
98 2 -10
99 15 -37
100 15 -37
101 15 -37
102 15 -37
103 15 -37
104 -18 22
105 -18 22
106 -18 22
107 -18 22
108 -18 22
109 -18 22
110 -18 22
111 -18 22
112 23 4
113 23 4
114 23 4
115 39 12
116 39 12
117 39 12
118 39 12
119 39 12
120 39 12
121 39 12
122 33 30
123 33 30
124 33 30
125 1 48
126 1 48
127 1 48
128 12 -4
129 12 -4
130 12 -4
131 -10 -20
132 -10 -20
133 -10 -20
134 -10 -20
135 -10 -20
136 -10 -20
137 -3 5
138 -3 5
139 -3 5
140 -3 5
141 -26 -32
142 -26 -32
143 -26 -32
144 -26 -32
145 22 -49
146 22 -49
147 22 -49
148 22 -49
149 22 -49
150 22 -49
151 22 -49
152 -40 8
153 -40 8
154 -40 8
155 -40 8
156 -40 8
157 50 10
158 50 10
159 50 10
160 50 10
161 50 10
162 -17 -25
163 -17 -25
164 -17 -25
165 -15 -20
166 -15 -20
167 -15 -20
168 -15 -20
169 48 -20
170 48 -20
171 48 -20
172 48 -20
173 48 -20
174 15 -4
175 15 -4
176 15 -4
177 28 22
178 28 22
179 28 22
180 28 22
181 28 22
182 28 22
183 28 22
184 -12 31
185 -12 31
186 -12 31
187 -12 31
188 -12 31
189 -48 37
190 -48 37
191 -48 37
192 -48 37
193 -48 37
194 -48 37
195 -48 37
196 1 -3
197 1 -3
198 1 -3
199 1 -3
200 1 -3
201 -10 -27
202 -10 -27
203 -10 -27
204 -10 -27
205 -10 -27
206 -10 -27
207 -6 -43
208 -6 -43
209 -6 -43
210 -6 -43
211 -6 -43
212 36 2
213 36 2
214 36 2
215 36 2
216 36 2
217 4 -49
218 4 -49
219 4 -49
220 4 -49
221 4 -49
222 4 -49
223 4 -49
224 4 -49
225 -47 -42
226 -47 -42
227 -47 -42
228 -47 -42
229 6 14
230 6 14
231 6 14
232 6 14
233 6 14
234 6 14
235 6 14
236 42 35
237 42 35
238 42 35
239 42 35
240 42 35
241 37 -28
242 37 -28
243 37 -28
244 37 -28
245 17 45
246 17 45
247 17 45
248 17 45
249 17 45
250 17 45
251 1 -44
252 1 -44
253 1 -44
254 1 -44
255 1 -44
256 50 1
257 50 1
258 50 1
259 50 1
260 -24 -23
261 -24 -23
262 -24 -23
263 -24 -23
264 -37 13
265 -37 13
266 -37 13
267 -37 13
268 -37 13
269 23 -39
270 23 -39
271 23 -39
272 23 -39
273 48 -35
274 48 -35
275 48 -35
276 48 -35
277 -41 50
278 -41 50
279 -41 50
280 -41 50
281 -41 50
282 -41 50
283 -23 3
284 -23 3
285 -23 3
286 -23 3
287 -23 3
288 -23 3
289 -23 3
290 37 -7
291 37 -7
292 37 -7
293 37 -7
294 37 -7
295 -1 34
296 -1 34
297 -1 34
298 -1 34
299 -1 34
300 -1 34
301 -1 34
302 -44 -27
303 -44 -27
304 -44 -27
305 -44 -27
306 -44 -27
307 -33 20
308 50 -3
309 50 -3
310 50 -3
311 50 -3
312 50 -3
313 5 -15
314 5 -15
315 -39 15
316 -39 15
317 -39 15
318 -39 15
319 -39 15
320 -39 15
321 -39 15
322 -31 -23
323 -31 -23
324 -31 -23
325 -31 -23
326 -31 -23
327 10 -46
328 10 -46
329 10 -46
330 29 -21
331 29 -21
332 29 -21
333 29 -21
334 29 -21
335 20 -50
336 20 -50
337 20 -50
338 20 -50
339 35 41
340 35 41
341 35 41
342 35 41
343 35 41
344 35 41
345 35 41
346 2 -15
347 2 -15
348 2 -15
349 -10 -16
350 -10 -16
351 -10 -16
352 -10 -16
353 45 -31
354 45 -31
355 24 -15
356 24 -15
357 24 -15
358 24 -15
359 24 -15
360 -33 38
361 -33 38
362 -33 38
363 37 15
364 37 15
365 37 15
366 37 15
367 37 15
368 37 15
369 -3 44
370 -3 44
371 -3 44
372 -3 44
373 -3 44
374 -19 2
375 -19 2
376 -19 2
377 -19 2
378 -19 2
379 -19 2
380 -40 37
381 -40 37
382 -40 37
383 -40 37
384 -40 37
385 -40 37
386 -40 37
387 -40 37
388 -21 -33
389 -21 -33
390 -21 -33
391 4 40
392 4 40
393 4 40
394 4 40
395 8 -41
396 8 -41
397 8 -41
398 8 -41
399 8 -41
400 8 -41
401 36 33
402 36 33
403 36 33
404 36 33
405 36 33
406 36 33
407 -27 -20
408 -27 -20
409 -27 -20
410 -15 23
411 -15 23
412 -15 23
413 -15 23
414 -15 23
415 49 -28
416 49 -28
417 49 -28
418 49 -28
419 49 -28
420 49 -28
421 16 37
422 16 37
423 16 37
424 34 47
425 34 47
426 34 47
427 34 47
428 -34 16
429 -34 16
430 -34 16
431 -34 16
432 -34 16
433 16 -9
434 16 -9
435 16 -9
436 16 -9
437 -47 39
438 -47 39
439 -47 39
440 33 5
441 33 5
442 33 5
443 33 5
444 33 5
445 33 5
446 -28 40
447 -28 40
448 -28 40
449 -28 40
450 -28 40
451 -28 40
452 -28 40
453 19 -15
454 19 -15
455 19 -15
456 19 -15
457 19 -15
458 19 -15
459 20 -23
460 20 -23
461 20 -23
462 20 -23
463 20 -23
464 39 43
465 39 43
466 39 43
467 39 43
468 39 43
469 39 43
470 39 43
471 31 9
472 31 9
473 31 9
474 26 26
475 26 26
DEMAND_SECTION
1 0
2 400
3 200
4 100
5 20
6 20
7 400
8 400
9 20
10 10
11 400
12 100
13 20
14 10
15 400
16 100
17 20
18 20
19 20
20 400
21 200
22 100
23 20
24 20
25 10
26 400
27 20
28 400
29 400
30 20
31 20
32 400
33 20
34 20
35 20
36 20
37 10
38 400
39 400
40 100
41 20
42 10
43 200
44 100
45 400
46 400
47 100
48 20
49 20
50 20
51 10
52 400
53 200
54 100
55 20
56 20
57 20
58 200
59 100
60 20
61 20
62 400
63 400
64 20
65 20
66 20
67 20
68 400
69 400
70 20
71 10
72 400
73 20
74 10
75 400
76 400
77 100
78 20
79 200
80 100
81 20
82 10
83 400
84 200
85 100
86 10
87 400
88 400
89 100
90 20
91 10
92 400
93 200
94 100
95 400
96 200
97 100
98 10
99 400
100 20
101 20
102 20
103 10
104 400
105 400
106 100
107 20
108 20
109 20
110 20
111 10
112 400
113 400
114 20
115 400
116 400
117 20
118 20
119 20
120 20
121 10
122 200
123 100
124 10
125 400
126 400
127 100
128 400
129 100
130 10
131 200
132 20
133 20
134 20
135 20
136 10
137 400
138 200
139 20
140 20
141 400
142 400
143 20
144 20
145 400
146 100
147 20
148 20
149 20
150 20
151 10
152 200
153 100
154 20
155 20
156 20
157 400
158 100
159 20
160 20
161 20
162 400
163 400
164 20
165 400
166 200
167 20
168 20
169 400
170 200
171 20
172 20
173 20
174 400
175 400
176 10
177 400
178 200
179 100
180 20
181 20
182 20
183 10
184 200
185 100
186 20
187 20
188 10
189 400
190 400
191 100
192 20
193 20
194 20
195 20
196 400
197 100
198 20
199 20
200 10
201 400
202 200
203 100
204 20
205 20
206 10
207 200
208 20
209 20
210 20
211 20
212 200
213 20
214 20
215 20
216 20
217 400
218 400
219 100
220 20
221 20
222 20
223 20
224 10
225 400
226 400
227 100
228 20
229 400
230 400
231 100
232 20
233 20
234 20
235 20
236 200
237 20
238 20
239 20
240 10
241 400
242 200
243 100
244 20
245 400
246 200
247 100
248 20
249 20
250 20
251 400
252 100
253 20
254 20
255 20
256 200
257 20
258 20
259 10
260 400
261 400
262 100
263 20
264 400
265 400
266 100
267 20
268 10
269 200
270 20
271 20
272 20
273 400
274 200
275 100
276 20
277 400
278 400
279 20
280 20
281 20
282 10
283 400
284 200
285 100
286 20
287 20
288 20
289 20
290 400
291 100
292 20
293 20
294 10
295 400
296 400
297 20
298 20
299 20
300 20
301 10
302 400
303 400
304 20
305 20
306 10
307 400
308 400
309 20
310 20
311 20
312 20
313 400
314 400
315 400
316 400
317 100
318 20
319 20
320 20
321 20
322 400
323 100
324 20
325 20
326 10
327 400
328 200
329 100
330 400
331 100
332 20
333 20
334 10
335 400
336 400
337 100
338 20
339 400
340 200
341 20
342 20
343 20
344 20
345 10
346 400
347 200
348 10
349 400
350 400
351 100
352 10
353 400
354 100
355 400
356 200
357 20
358 20
359 10
360 200
361 100
362 10
363 200
364 20
365 20
366 20
367 20
368 10
369 200
370 100
371 20
372 20
373 10
374 200
375 100
376 20
377 20
378 20
379 20
380 400
381 200
382 100
383 20
384 20
385 20
386 20
387 10
388 400
389 100
390 20
391 400
392 400
393 100
394 10
395 400
396 20
397 20
398 20
399 20
400 10
401 400
402 200
403 100
404 20
405 20
406 20
407 200
408 100
409 10
410 200
411 20
412 20
413 20
414 10
415 400
416 400
417 100
418 20
419 20
420 20
421 400
422 20
423 20
424 400
425 400
426 20
427 10
428 400
429 200
430 20
431 20
432 20
433 400
434 200
435 20
436 10
437 400
438 400
439 200
440 200
441 100
442 20
443 20
444 20
445 20
446 400
447 100
448 20
449 20
450 20
451 20
452 10
453 400
454 100
455 20
456 20
457 20
458 10
459 400
460 400
461 100
462 20
463 10
464 400
465 200
466 20
467 20
468 20
469 20
470 10
471 400
472 100
473 10
474 200
475 100
DEPOT_SECTION
1
-1
EOF