SDVRP instances/custom_instances/p03_20_splitx10_0.sol
474 -7 9 8 6 286 282 284 288 283 285 287 374 373 375 376 378 377 -25 26 471 472 470 11 13 12 10 230 233 234 228 -33 34 317 320 316 314 315 318 319 37 40 39 41 38 -42 43 156 160 158 159 157 256 257 255 258 307 308 311 309 310 289 -54 51 52 55 53 56 249 248 247 244 246 245 421 420 422 -57 60 59 58 46 47 45 48 49 50 44 322 321 325 323 324 408 407 -66 62 65 63 64 61 200 201 204 203 205 202 130 135 133 132 131 134 -69 70 184 185 369 368 370 371 372 124 125 126 85 82 84 -72 436 438 437 192 190 189 194 188 191 193 -73 71 384 385 383 379 386 382 381 380 306 427 -80 81 78 79 109 103 104 106 107 110 108 105 413 410 409 411 412 136 -83 297 295 296 298 300 294 299 391 390 393 392 -90 88 87 89 86 67 68 137 138 139 -92 93 91 95 94 97 96 196 199 195 198 197 -100 102 99 101 98 335 336 334 337 146 145 148 144 150 147 149 -111 112 113 19 21 20 22 23 24 129 127 -123 121 122 28 30 27 29 181 180 178 182 176 177 179 -128 291 292 293 290 172 169 171 168 170 414 415 416 418 419 417 353 -155 151 153 154 152 265 264 266 267 263 32 36 35 31 431 429 428 430 -165 167 166 164 142 141 140 143 387 389 388 -174 175 173 435 433 432 434 453 457 452 456 -186 183 187 448 445 451 447 449 446 450 277 278 276 279 280 281 361 359 360 -206 209 207 208 210 222 217 223 216 220 219 218 221 251 253 250 254 252 -229 232 231 426 424 423 425 468 464 463 466 469 467 465 343 342 -242 243 273 274 272 275 17 16 14 15 18 352 331 333 330 332 -260 262 261 259 161 162 163 351 350 -269 3 4 5 1 326 328 327 399 394 398 396 397 395 347 346 -270 271 268 2 76 74 75 77 241 240 454 455 -305 302 303 301 304 226 224 225 227 406 -313 312 345 349 348 -339 340 341 338 344 236 237 239 235 238 400 402 403 404 401 405 473 474 -358 355 357 356 354 329 459 461 462 460 458 -366 367 363 365 362 364 118 115 114 119 117 116 120 213 214 215 212 211 444 442 441 440 439 443 0 





OBJ=
3014.970
BEST_KNOWN=
0.000